solution status: optimal solution found
objective value:                     207521.004828894
d11(0,0)                                            1 	(obj:0)
d11(1,1)                                            1 	(obj:0)
d11(1,2)                                            1 	(obj:0)
d11(2,5)                                            1 	(obj:0)
d11(3,7)                                            1 	(obj:0)
d11(3,9)                                            1 	(obj:0)
d11(3,10)                                           1 	(obj:0)
d11(3,11)                                           1 	(obj:0)
d11(3,13)                                           1 	(obj:0)
d11(3,14)                                           1 	(obj:0)
d11(4,21)                                           1 	(obj:0)
d11(4,25)                                           1 	(obj:0)
d11(5,41)                                           1 	(obj:0)
d11(5,43)                                           1 	(obj:0)
d12(2,4)                                            1 	(obj:0)
d12(2,6)                                            1 	(obj:0)
d12(4,16)                                           1 	(obj:0)
d12(4,18)                                           1 	(obj:0)
d12(4,20)                                           1 	(obj:0)
d12(4,22)                                           1 	(obj:0)
d12(4,24)                                           1 	(obj:0)
d12(4,26)                                           1 	(obj:0)
d12(4,28)                                           1 	(obj:0)
d12(4,30)                                           1 	(obj:0)
d12(5,32)                                           1 	(obj:0)
d12(5,34)                                           1 	(obj:0)
d12(5,36)                                           1 	(obj:0)
d12(5,38)                                           1 	(obj:0)
d12(5,40)                                           1 	(obj:0)
d12(5,42)                                           1 	(obj:0)
d12(5,44)                                           1 	(obj:0)
d12(5,46)                                           1 	(obj:0)
d12(5,48)                                           1 	(obj:0)
d12(5,50)                                           1 	(obj:0)
d12(5,52)                                           1 	(obj:0)
d12(5,54)                                           1 	(obj:0)
d12(5,56)                                           1 	(obj:0)
d12(5,58)                                           1 	(obj:0)
d12(5,60)                                           1 	(obj:0)
d12(5,62)                                           1 	(obj:0)
d21(3,7)                                            1 	(obj:0)
d21(3,8)                                            1 	(obj:0)
d21(3,9)                                            1 	(obj:0)
d21(3,11)                                           1 	(obj:0)
d21(4,15)                                           1 	(obj:0)
d21(4,16)                                           1 	(obj:0)
d21(4,17)                                           1 	(obj:0)
d21(4,19)                                           1 	(obj:0)
d21(4,23)                                           1 	(obj:0)
d21(5,31)                                           1 	(obj:0)
d21(5,32)                                           1 	(obj:0)
d21(5,33)                                           1 	(obj:0)
d21(5,34)                                           1 	(obj:0)
d21(5,35)                                           1 	(obj:0)
d21(5,36)                                           1 	(obj:0)
d21(5,37)                                           1 	(obj:0)
d21(5,39)                                           1 	(obj:0)
d21(5,40)                                           1 	(obj:0)
d21(5,41)                                           1 	(obj:0)
d21(5,43)                                           1 	(obj:0)
d21(5,47)                                           1 	(obj:0)
d21(5,48)                                           1 	(obj:0)
d21(5,49)                                           1 	(obj:0)
d21(5,55)                                           1 	(obj:0)
y2(5,40)                             1385.48851144895 	(obj:0)
y2(5,42)                             1385.48851144895 	(obj:0)
y2(5,44)                             1385.48851144895 	(obj:0)
y2(5,46)                             1385.48851144895 	(obj:0)
y2(5,48)                             1385.48851144895 	(obj:0)
y2(5,50)                             1385.48851144895 	(obj:0)
y2(5,52)                             1385.48851144895 	(obj:0)
y2(5,54)                             1385.48851144895 	(obj:0)
y2(5,56)                             1385.48851144895 	(obj:0)
y2(5,58)                             1385.48851144895 	(obj:0)
y2(5,60)                             1385.48851144895 	(obj:0)
y2(5,62)                             1385.48851144895 	(obj:0)
STE(1,1)                             2310.75015082425 	(obj:0)
STE(0,0)                                         9450 	(obj:0)
STE(1,2)                             3969.00004971307 	(obj:0)
STE(2,3)                             1554.75015082425 	(obj:0)
STE(2,4)                             2870.96423670076 	(obj:0)
STE(2,5)                             3213.00004971307 	(obj:0)
STE(2,6)                             4529.21413558958 	(obj:0)
STE(3,7)                            -859.499748064572 	(obj:0)
STE(3,8)                             798.750150824245 	(obj:0)
STE(3,9)                             456.714337811939 	(obj:0)
STE(3,10)                            2114.96423670076 	(obj:0)
STE(3,11)                            798.750150824249 	(obj:0)
STE(3,12)                            2457.00004971307 	(obj:0)
STE(3,13)                            2114.96423670076 	(obj:0)
STE(3,14)                            3773.21413558958 	(obj:0)
STE(4,15)                           -1615.49974806457 	(obj:0)
STE(4,16)                           -299.285662188066 	(obj:0)
STE(4,17)                            42.7501508242454 	(obj:0)
STE(4,18)                            1358.96423670075 	(obj:0)
STE(4,19)                           -299.285662188061 	(obj:0)
STE(4,20)                            1016.92842368845 	(obj:0)
STE(4,21)                            1358.96423670076 	(obj:0)
STE(4,22)                            2675.17832257726 	(obj:0)
STE(4,23)                            42.7501508242489 	(obj:0)
STE(4,24)                            1358.96423670075 	(obj:0)
STE(4,25)                            1701.00004971307 	(obj:0)
STE(4,26)                            3017.21413558957 	(obj:0)
STE(4,27)                            1358.96423670076 	(obj:0)
STE(4,28)                            2675.17832257727 	(obj:0)
STE(4,29)                            3017.21413558958 	(obj:0)
STE(4,30)                            4333.42822146608 	(obj:0)
STE(5,31)                           -2371.49974806457 	(obj:0)
STE(5,32)                           -1055.28566218807 	(obj:0)
STE(5,33)                           -1055.28566218807 	(obj:0)
STE(5,34)                            260.928423688439 	(obj:0)
STE(5,35)                           -713.249849175755 	(obj:0)
STE(5,36)                            602.964236700751 	(obj:0)
STE(5,37)                            602.964236700751 	(obj:0)
STE(5,38)                            1919.17832257726 	(obj:0)
STE(5,39)                           -1055.28566218806 	(obj:0)
STE(5,40)                            260.928423688445 	(obj:0)
STE(5,41)                            260.928423688492 	(obj:0)
STE(5,42)                            1577.14250956496 	(obj:0)
STE(5,43)                            602.964236700799 	(obj:0)
STE(5,44)                            1919.17832257726 	(obj:0)
STE(5,45)                            1919.17832257726 	(obj:0)
STE(5,46)                            3235.39240845377 	(obj:0)
STE(5,47)                           -713.249849175751 	(obj:0)
STE(5,48)                            602.964236700755 	(obj:0)
STE(5,49)                            602.964236700755 	(obj:0)
STE(5,50)                            1919.17832257726 	(obj:0)
STE(5,51)                            945.000049713066 	(obj:0)
STE(5,52)                            2261.21413558957 	(obj:0)
STE(5,53)                            2261.21413558957 	(obj:0)
STE(5,54)                            3577.42822146608 	(obj:0)
STE(5,55)                             602.96423670076 	(obj:0)
STE(5,56)                            1919.17832257727 	(obj:0)
STE(5,57)                            1919.17832257727 	(obj:0)
STE(5,58)                            3235.39240845377 	(obj:0)
STE(5,59)                            2261.21413558958 	(obj:0)
STE(5,60)                            3577.42822146608 	(obj:0)
STE(5,61)                            3577.42822146608 	(obj:0)
STE(5,62)                            4893.64230734259 	(obj:0)
AVE(1)                                   3216.9117036 	(obj:0)
WB(2)                                692.744255724489 	(obj:0)
AVE(2)                                   3366.1541945 	(obj:0)
WB(3)                                    3515.3966854 	(obj:0)
AVE(3)                                   3515.3966854 	(obj:0)
WB(4)                                841.984126682749 	(obj:0)
AVE(4)                               3515.39406545826 	(obj:0)
WB(5)                                3167.15385943327 	(obj:0)
AVE(5)                               3167.15385943327 	(obj:0)
WG(1)                                    3216.9117036 	(obj:10)
WG(2)                                2673.40993877551 	(obj:10)
WG(4)                                2673.40993877551 	(obj:10)
BG(1)                                5318.66646401043 	(obj:10)
BG(3)                                4196.29249897959 	(obj:10)
BG(5)                                2673.40993877551 	(obj:10)
y1(1,1)                              5744.92486425818 	(obj:0)
y1(1,2)                              4252.49995525824 	(obj:0)
y1(3,7)                              1492.42490899994 	(obj:0)
y1(3,9)                              1492.42490899994 	(obj:0)
y1(3,11)                             1492.42490899994 	(obj:0)
y1(3,13)                             1492.42490899994 	(obj:0)
y2(2,4)                              1385.48851144896 	(obj:0)
y2(2,6)                              1385.48851144896 	(obj:0)
y2(4,16)                             1385.48851144895 	(obj:0)
y2(4,18)                             1385.48851144895 	(obj:0)
y2(4,20)                             1385.48851144896 	(obj:0)
y2(4,22)                             1385.48851144895 	(obj:0)
y2(4,24)                             1385.48851144895 	(obj:0)
y2(4,26)                             1385.48851144895 	(obj:0)
y2(4,28)                             1385.48851144895 	(obj:0)
y2(4,30)                             1385.48851144895 	(obj:0)
y2(5,32)                             1385.48851144895 	(obj:0)
y2(5,34)                             1385.48851144895 	(obj:0)
y2(5,36)                             1385.48851144895 	(obj:0)
y2(5,38)                             1385.48851144895 	(obj:0)
